VRPTWMS/instances/mip/toCalculate/TestInstance2Freight_No_36.log

Gurobi 6.0.2 (win64) logging started 06/11/15 22:07:04

Warning: unknown variable 'kDash_dN' in bounds section
Read LP format model from file C:\MT\repository\VRPTWMS\instances\mip\toCalculate\TestInstance2Freight_No_36.lp
Reading time = 0.00 seconds
(null): 73 rows, 61 columns, 237 nonzeros
Optimize a model with 73 rows, 61 columns and 237 nonzeros
Model has 48 quadratic constraints
WARNING: Only barrier available for SOCP models
Coefficient statistics:
  Matrix range    [1e+00, 1e+03]
  Objective range [1e+00, 1e+03]
  Bounds range    [1e+00, 1e+03]
  RHS range       [1e+00, 1e+03]
Presolve removed 19 rows and 13 columns
Presolve time: 0.01s

Explored 0 nodes (0 simplex iterations) in 0.01 seconds
Thread count was 1 (of 4 available processors)

Best objective -, best bound -, gap -
